p cnf 162 1212
1 9 5 13 0
17 25 21 29 0
33 41 37 45 0
2 10 6 14 0
18 26 22 30 0
34 42 38 46 0
3 11 7 15 0
19 27 23 31 0
35 43 39 47 0
4 12 8 16 0
20 28 24 32 0
36 44 40 48 0
-1 -5 0
-9 -13 0
-17 -21 0
-25 -29 0
-33 -37 0
-41 -45 0
-2 -6 0
-10 -14 0
-18 -22 0
-26 -30 0
-34 -38 0
-42 -46 0
-3 -7 0
-11 -15 0
-19 -23 0
-27 -31 0
-35 -39 0
-43 -47 0
-4 -8 0
-12 -16 0
-20 -24 0
-28 -32 0
-36 -40 0
-44 -48 0
-1 -9 0
-1 -13 0
-5 -9 0
-5 -13 0
-17 -25 0
-17 -29 0
-21 -25 0
-21 -29 0
-33 -41 0
-33 -45 0
-37 -41 0
-37 -45 0
-2 -10 0
-2 -14 0
-6 -10 0
-6 -14 0
-18 -26 0
-18 -30 0
-22 -26 0
-22 -30 0
-34 -42 0
-34 -46 0
-38 -42 0
-38 -46 0
-3 -11 0
-3 -15 0
-7 -11 0
-7 -15 0
-19 -27 0
-19 -31 0
-23 -27 0
-23 -31 0
-35 -43 0
-35 -47 0
-39 -43 0
-39 -47 0
-4 -12 0
-4 -16 0
-8 -12 0
-8 -16 0
-20 -28 0
-20 -32 0
-24 -28 0
-24 -32 0
-36 -44 0
-36 -48 0
-40 -44 0
-40 -48 0
1 2 3 4 0
5 6 7 8 0
9 10 11 12 0
13 14 15 16 0
17 18 19 20 0
21 22 23 24 0
25 26 27 28 0
29 30 31 32 0
33 34 35 36 0
37 38 39 40 0
41 42 43 44 0
45 46 47 48 0
-1 -2 0
-5 -6 0
-9 -10 0
-13 -14 0
-17 -18 0
-21 -22 0
-25 -26 0
-29 -30 0
-33 -34 0
-37 -38 0
-41 -42 0
-45 -46 0
49 -1 0
49 -5 0
-49 1 5 0
57 -17 0
57 -21 0
-57 17 21 0
65 -33 0
65 -37 0
-65 33 37 0
53 -9 0
53 -13 0
-53 9 13 0
61 -25 0
61 -29 0
-61 25 29 0
69 -41 0
69 -45 0
-69 41 45 0
50 -2 0
50 -6 0
-50 2 6 0
58 -18 0
58 -22 0
-58 18 22 0
66 -34 0
66 -38 0
-66 34 38 0
54 -10 0
54 -14 0
-54 10 14 0
62 -26 0
62 -30 0
-62 26 30 0
70 -42 0
70 -46 0
-70 42 46 0
51 -3 0
51 -7 0
-51 3 7 0
59 -19 0
59 -23 0
-59 19 23 0
67 -35 0
67 -39 0
-67 35 39 0
55 -11 0
55 -15 0
-55 11 15 0
63 -27 0
63 -31 0
-63 27 31 0
71 -43 0
71 -47 0
-71 43 47 0
52 -4 0
52 -8 0
-52 4 8 0
60 -20 0
60 -24 0
-60 20 24 0
68 -36 0
68 -40 0
-68 36 40 0
56 -12 0
56 -16 0
-56 12 16 0
64 -28 0
64 -32 0
-64 28 32 0
72 -44 0
72 -48 0
-72 44 48 0
-49 -50 -57 -58 0
-49 -50 -65 -66 0
-49 -50 -61 -62 0
-49 -50 -69 -70 0
-49 -51 -57 -59 0
-49 -51 -65 -67 0
-49 -51 -61 -63 0
-49 -51 -69 -71 0
-49 -52 -57 -60 0
-49 -52 -65 -68 0
-49 -52 -61 -64 0
-49 -52 -69 -72 0
-50 -51 -58 -59 0
-50 -51 -66 -67 0
-50 -51 -62 -63 0
-50 -51 -70 -71 0
-50 -52 -58 -60 0
-50 -52 -66 -68 0
-50 -52 -62 -64 0
-50 -52 -70 -72 0
-51 -52 -59 -60 0
-51 -52 -67 -68 0
-51 -52 -63 -64 0
-51 -52 -71 -72 0
-53 -54 -57 -58 0
-53 -54 -65 -66 0
-53 -54 -61 -62 0
-53 -54 -69 -70 0
-53 -55 -57 -59 0
-53 -55 -65 -67 0
-53 -55 -61 -63 0
-53 -55 -69 -71 0
-53 -56 -57 -60 0
-53 -56 -65 -68 0
-53 -56 -61 -64 0
-53 -56 -69 -72 0
-54 -55 -58 -59 0
-54 -55 -66 -67 0
-54 -55 -62 -63 0
-54 -55 -70 -71 0
-54 -56 -58 -60 0
-54 -56 -66 -68 0
-54 -56 -62 -64 0
-54 -56 -70 -72 0
-55 -56 -59 -60 0
-55 -56 -67 -68 0
-55 -56 -63 -64 0
-55 -56 -71 -72 0
-57 -58 -65 -66 0
-57 -58 -69 -70 0
-57 -59 -65 -67 0
-57 -59 -69 -71 0
-57 -60 -65 -68 0
-57 -60 -69 -72 0
-58 -59 -66 -67 0
-58 -59 -70 -71 0
-58 -60 -66 -68 0
-58 -60 -70 -72 0
-59 -60 -67 -68 0
-59 -60 -71 -72 0
-61 -62 -65 -66 0
-61 -62 -69 -70 0
-61 -63 -65 -67 0
-61 -63 -69 -71 0
-61 -64 -65 -68 0
-61 -64 -69 -72 0
-62 -63 -66 -67 0
-62 -63 -70 -71 0
-62 -64 -66 -68 0
-62 -64 -70 -72 0
-63 -64 -67 -68 0
-63 -64 -71 -72 0
-1 -5 0
-17 -21 0
-33 -37 0
-9 -13 0
-25 -29 0
-41 -45 0
-2 -5 0
-2 -6 0
-18 -21 0
-18 -22 0
-34 -37 0
-34 -38 0
-10 -13 0
-10 -14 0
-26 -29 0
-26 -30 0
-42 -45 0
-42 -46 0
-3 -5 0
-3 -6 0
-3 -7 0
-19 -21 0
-19 -22 0
-19 -23 0
-35 -37 0
-35 -38 0
-35 -39 0
-11 -13 0
-11 -14 0
-11 -15 0
-27 -29 0
-27 -30 0
-27 -31 0
-43 -45 0
-43 -46 0
-43 -47 0
-4 -5 0
-4 -6 0
-4 -7 0
-4 -8 0
-20 -21 0
-20 -22 0
-20 -23 0
-20 -24 0
-36 -37 0
-36 -38 0
-36 -39 0
-36 -40 0
-12 -13 0
-12 -14 0
-12 -15 0
-12 -16 0
-28 -29 0
-28 -30 0
-28 -31 0
-28 -32 0
-44 -45 0
-44 -46 0
-44 -47 0
-44 -48 0
-2 -9 0
-18 -25 0
-34 -41 0
-3 -9 0
-3 -10 0
-19 -25 0
-19 -26 0
-35 -41 0
-35 -42 0
-4 -9 0
-4 -10 0
-4 -11 0
-20 -25 0
-20 -26 0
-20 -27 0
-36 -41 0
-36 -42 0
-36 -43 0
-5 -21 0
-21 -37 0
-6 -21 0
-6 -22 0
-22 -37 0
-22 -38 0
-7 -21 0
-7 -22 0
-7 -23 0
-23 -37 0
-23 -38 0
-23 -39 0
-8 -21 0
-8 -22 0
-8 -23 0
-8 -24 0
-24 -37 0
-24 -38 0
-24 -39 0
-24 -40 0
1 13 25 7 19 31 0
37 49 61 43 55 67 0
73 85 97 79 91 103 0
2 14 26 8 20 32 0
38 50 62 44 56 68 0
74 86 98 80 92 104 0
3 15 27 9 21 33 0
39 51 63 45 57 69 0
75 87 99 81 93 105 0
4 16 28 10 22 34 0
40 52 64 46 58 70 0
76 88 100 82 94 106 0
5 17 29 11 23 35 0
41 53 65 47 59 71 0
77 89 101 83 95 107 0
6 18 30 12 24 36 0
42 54 66 48 60 72 0
78 90 102 84 96 108 0
-1 -7 0
-13 -19 0
-25 -31 0
-37 -43 0
-49 -55 0
-61 -67 0
-73 -79 0
-85 -91 0
-97 -103 0
-2 -8 0
-14 -20 0
-26 -32 0
-38 -44 0
-50 -56 0
-62 -68 0
-74 -80 0
-86 -92 0
-98 -104 0
-3 -9 0
-15 -21 0
-27 -33 0
-39 -45 0
-51 -57 0
-63 -69 0
-75 -81 0
-87 -93 0
-99 -105 0
-4 -10 0
-16 -22 0
-28 -34 0
-40 -46 0
-52 -58 0
-64 -70 0
-76 -82 0
-88 -94 0
-100 -106 0
-5 -11 0
-17 -23 0
-29 -35 0
-41 -47 0
-53 -59 0
-65 -71 0
-77 -83 0
-89 -95 0
-101 -107 0
-6 -12 0
-18 -24 0
-30 -36 0
-42 -48 0
-54 -60 0
-66 -72 0
-78 -84 0
-90 -96 0
-102 -108 0
-1 -13 0
-1 -19 0
-1 -25 0
-1 -31 0
-13 -25 0
-13 -31 0
-7 -13 0
-7 -19 0
-7 -25 0
-7 -31 0
-19 -25 0
-19 -31 0
-37 -49 0
-37 -55 0
-37 -61 0
-37 -67 0
-49 -61 0
-49 -67 0
-43 -49 0
-43 -55 0
-43 -61 0
-43 -67 0
-55 -61 0
-55 -67 0
-73 -85 0
-73 -91 0
-73 -97 0
-73 -103 0
-85 -97 0
-85 -103 0
-79 -85 0
-79 -91 0
-79 -97 0
-79 -103 0
-91 -97 0
-91 -103 0
-2 -14 0
-2 -20 0
-2 -26 0
-2 -32 0
-14 -26 0
-14 -32 0
-8 -14 0
-8 -20 0
-8 -26 0
-8 -32 0
-20 -26 0
-20 -32 0
-38 -50 0
-38 -56 0
-38 -62 0
-38 -68 0
-50 -62 0
-50 -68 0
-44 -50 0
-44 -56 0
-44 -62 0
-44 -68 0
-56 -62 0
-56 -68 0
-74 -86 0
-74 -92 0
-74 -98 0
-74 -104 0
-86 -98 0
-86 -104 0
-80 -86 0
-80 -92 0
-80 -98 0
-80 -104 0
-92 -98 0
-92 -104 0
-3 -15 0
-3 -21 0
-3 -27 0
-3 -33 0
-15 -27 0
-15 -33 0
-9 -15 0
-9 -21 0
-9 -27 0
-9 -33 0
-21 -27 0
-21 -33 0
-39 -51 0
-39 -57 0
-39 -63 0
-39 -69 0
-51 -63 0
-51 -69 0
-45 -51 0
-45 -57 0
-45 -63 0
-45 -69 0
-57 -63 0
-57 -69 0
-75 -87 0
-75 -93 0
-75 -99 0
-75 -105 0
-87 -99 0
-87 -105 0
-81 -87 0
-81 -93 0
-81 -99 0
-81 -105 0
-93 -99 0
-93 -105 0
-4 -16 0
-4 -22 0
-4 -28 0
-4 -34 0
-16 -28 0
-16 -34 0
-10 -16 0
-10 -22 0
-10 -28 0
-10 -34 0
-22 -28 0
-22 -34 0
-40 -52 0
-40 -58 0
-40 -64 0
-40 -70 0
-52 -64 0
-52 -70 0
-46 -52 0
-46 -58 0
-46 -64 0
-46 -70 0
-58 -64 0
-58 -70 0
-76 -88 0
-76 -94 0
-76 -100 0
-76 -106 0
-88 -100 0
-88 -106 0
-82 -88 0
-82 -94 0
-82 -100 0
-82 -106 0
-94 -100 0
-94 -106 0
-5 -17 0
-5 -23 0
-5 -29 0
-5 -35 0
-17 -29 0
-17 -35 0
-11 -17 0
-11 -23 0
-11 -29 0
-11 -35 0
-23 -29 0
-23 -35 0
-41 -53 0
-41 -59 0
-41 -65 0
-41 -71 0
-53 -65 0
-53 -71 0
-47 -53 0
-47 -59 0
-47 -65 0
-47 -71 0
-59 -65 0
-59 -71 0
-77 -89 0
-77 -95 0
-77 -101 0
-77 -107 0
-89 -101 0
-89 -107 0
-83 -89 0
-83 -95 0
-83 -101 0
-83 -107 0
-95 -101 0
-95 -107 0
-6 -18 0
-6 -24 0
-6 -30 0
-6 -36 0
-18 -30 0
-18 -36 0
-12 -18 0
-12 -24 0
-12 -30 0
-12 -36 0
-24 -30 0
-24 -36 0
-42 -54 0
-42 -60 0
-42 -66 0
-42 -72 0
-54 -66 0
-54 -72 0
-48 -54 0
-48 -60 0
-48 -66 0
-48 -72 0
-60 -66 0
-60 -72 0
-78 -90 0
-78 -96 0
-78 -102 0
-78 -108 0
-90 -102 0
-90 -108 0
-84 -90 0
-84 -96 0
-84 -102 0
-84 -108 0
-96 -102 0
-96 -108 0
1 2 3 4 5 6 0
7 8 9 10 11 12 0
13 14 15 16 17 18 0
19 20 21 22 23 24 0
25 26 27 28 29 30 0
31 32 33 34 35 36 0
37 38 39 40 41 42 0
43 44 45 46 47 48 0
49 50 51 52 53 54 0
55 56 57 58 59 60 0
61 62 63 64 65 66 0
67 68 69 70 71 72 0
73 74 75 76 77 78 0
79 80 81 82 83 84 0
85 86 87 88 89 90 0
91 92 93 94 95 96 0
97 98 99 100 101 102 0
103 104 105 106 107 108 0
-1 -2 0
-7 -8 0
-13 -14 0
-19 -20 0
-25 -26 0
-31 -32 0
-37 -38 0
-43 -44 0
-49 -50 0
-55 -56 0
-61 -62 0
-67 -68 0
-73 -74 0
-79 -80 0
-85 -86 0
-91 -92 0
-97 -98 0
-103 -104 0
109 -1 0
109 -7 0
-109 1 7 0
127 -37 0
127 -43 0
-127 37 43 0
145 -73 0
145 -79 0
-145 73 79 0
115 -13 0
115 -19 0
-115 13 19 0
133 -49 0
133 -55 0
-133 49 55 0
151 -85 0
151 -91 0
-151 85 91 0
121 -25 0
121 -31 0
-121 25 31 0
139 -61 0
139 -67 0
-139 61 67 0
157 -97 0
157 -103 0
-157 97 103 0
110 -2 0
110 -8 0
-110 2 8 0
128 -38 0
128 -44 0
-128 38 44 0
146 -74 0
146 -80 0
-146 74 80 0
116 -14 0
116 -20 0
-116 14 20 0
134 -50 0
134 -56 0
-134 50 56 0
152 -86 0
152 -92 0
-152 86 92 0
122 -26 0
122 -32 0
-122 26 32 0
140 -62 0
140 -68 0
-140 62 68 0
158 -98 0
158 -104 0
-158 98 104 0
111 -3 0
111 -9 0
-111 3 9 0
129 -39 0
129 -45 0
-129 39 45 0
147 -75 0
147 -81 0
-147 75 81 0
117 -15 0
117 -21 0
-117 15 21 0
135 -51 0
135 -57 0
-135 51 57 0
153 -87 0
153 -93 0
-153 87 93 0
123 -27 0
123 -33 0
-123 27 33 0
141 -63 0
141 -69 0
-141 63 69 0
159 -99 0
159 -105 0
-159 99 105 0
112 -4 0
112 -10 0
-112 4 10 0
130 -40 0
130 -46 0
-130 40 46 0
148 -76 0
148 -82 0
-148 76 82 0
118 -16 0
118 -22 0
-118 16 22 0
136 -52 0
136 -58 0
-136 52 58 0
154 -88 0
154 -94 0
-154 88 94 0
124 -28 0
124 -34 0
-124 28 34 0
142 -64 0
142 -70 0
-142 64 70 0
160 -100 0
160 -106 0
-160 100 106 0
113 -5 0
113 -11 0
-113 5 11 0
131 -41 0
131 -47 0
-131 41 47 0
149 -77 0
149 -83 0
-149 77 83 0
119 -17 0
119 -23 0
-119 17 23 0
137 -53 0
137 -59 0
-137 53 59 0
155 -89 0
155 -95 0
-155 89 95 0
125 -29 0
125 -35 0
-125 29 35 0
143 -65 0
143 -71 0
-143 65 71 0
161 -101 0
161 -107 0
-161 101 107 0
114 -6 0
114 -12 0
-114 6 12 0
132 -42 0
132 -48 0
-132 42 48 0
150 -78 0
150 -84 0
-150 78 84 0
120 -18 0
120 -24 0
-120 18 24 0
138 -54 0
138 -60 0
-138 54 60 0
156 -90 0
156 -96 0
-156 90 96 0
126 -30 0
126 -36 0
-126 30 36 0
144 -66 0
144 -72 0
-144 66 72 0
162 -102 0
162 -108 0
-162 102 108 0
-109 -110 -127 -128 0
-109 -110 -145 -146 0
-109 -110 -133 -134 0
-109 -110 -151 -152 0
-109 -110 -139 -140 0
-109 -110 -157 -158 0
-109 -111 -127 -129 0
-109 -111 -145 -147 0
-109 -111 -133 -135 0
-109 -111 -151 -153 0
-109 -111 -139 -141 0
-109 -111 -157 -159 0
-109 -112 -127 -130 0
-109 -112 -145 -148 0
-109 -112 -133 -136 0
-109 -112 -151 -154 0
-109 -112 -139 -142 0
-109 -112 -157 -160 0
-109 -113 -127 -131 0
-109 -113 -145 -149 0
-109 -113 -133 -137 0
-109 -113 -151 -155 0
-109 -113 -139 -143 0
-109 -113 -157 -161 0
-109 -114 -127 -132 0
-109 -114 -145 -150 0
-109 -114 -133 -138 0
-109 -114 -151 -156 0
-109 -114 -139 -144 0
-109 -114 -157 -162 0
-110 -111 -128 -129 0
-110 -111 -146 -147 0
-110 -111 -134 -135 0
-110 -111 -152 -153 0
-110 -111 -140 -141 0
-110 -111 -158 -159 0
-110 -112 -128 -130 0
-110 -112 -146 -148 0
-110 -112 -134 -136 0
-110 -112 -152 -154 0
-110 -112 -140 -142 0
-110 -112 -158 -160 0
-110 -113 -128 -131 0
-110 -113 -146 -149 0
-110 -113 -134 -137 0
-110 -113 -152 -155 0
-110 -113 -140 -143 0
-110 -113 -158 -161 0
-110 -114 -128 -132 0
-110 -114 -146 -150 0
-110 -114 -134 -138 0
-110 -114 -152 -156 0
-110 -114 -140 -144 0
-110 -114 -158 -162 0
-111 -112 -129 -130 0
-111 -112 -147 -148 0
-111 -112 -135 -136 0
-111 -112 -153 -154 0
-111 -112 -141 -142 0
-111 -112 -159 -160 0
-111 -113 -129 -131 0
-111 -113 -147 -149 0
-111 -113 -135 -137 0
-111 -113 -153 -155 0
-111 -113 -141 -143 0
-111 -113 -159 -161 0
-111 -114 -129 -132 0
-111 -114 -147 -150 0
-111 -114 -135 -138 0
-111 -114 -153 -156 0
-111 -114 -141 -144 0
-111 -114 -159 -162 0
-112 -113 -130 -131 0
-112 -113 -148 -149 0
-112 -113 -136 -137 0
-112 -113 -154 -155 0
-112 -113 -142 -143 0
-112 -113 -160 -161 0
-112 -114 -130 -132 0
-112 -114 -148 -150 0
-112 -114 -136 -138 0
-112 -114 -154 -156 0
-112 -114 -142 -144 0
-112 -114 -160 -162 0
-113 -114 -131 -132 0
-113 -114 -149 -150 0
-113 -114 -137 -138 0
-113 -114 -155 -156 0
-113 -114 -143 -144 0
-113 -114 -161 -162 0
-115 -116 -127 -128 0
-115 -116 -145 -146 0
-115 -116 -133 -134 0
-115 -116 -151 -152 0
-115 -116 -139 -140 0
-115 -116 -157 -158 0
-115 -117 -127 -129 0
-115 -117 -145 -147 0
-115 -117 -133 -135 0
-115 -117 -151 -153 0
-115 -117 -139 -141 0
-115 -117 -157 -159 0
-115 -118 -127 -130 0
-115 -118 -145 -148 0
-115 -118 -133 -136 0
-115 -118 -151 -154 0
-115 -118 -139 -142 0
-115 -118 -157 -160 0
-115 -119 -127 -131 0
-115 -119 -145 -149 0
-115 -119 -133 -137 0
-115 -119 -151 -155 0
-115 -119 -139 -143 0
-115 -119 -157 -161 0
-115 -120 -127 -132 0
-115 -120 -145 -150 0
-115 -120 -133 -138 0
-115 -120 -151 -156 0
-115 -120 -139 -144 0
-115 -120 -157 -162 0
-116 -117 -128 -129 0
-116 -117 -146 -147 0
-116 -117 -134 -135 0
-116 -117 -152 -153 0
-116 -117 -140 -141 0
-116 -117 -158 -159 0
-116 -118 -128 -130 0
-116 -118 -146 -148 0
-116 -118 -134 -136 0
-116 -118 -152 -154 0
-116 -118 -140 -142 0
-116 -118 -158 -160 0
-116 -119 -128 -131 0
-116 -119 -146 -149 0
-116 -119 -134 -137 0
-116 -119 -152 -155 0
-116 -119 -140 -143 0
-116 -119 -158 -161 0
-116 -120 -128 -132 0
-116 -120 -146 -150 0
-116 -120 -134 -138 0
-116 -120 -152 -156 0
-116 -120 -140 -144 0
-116 -120 -158 -162 0
-117 -118 -129 -130 0
-117 -118 -147 -148 0
-117 -118 -135 -136 0
-117 -118 -153 -154 0
-117 -118 -141 -142 0
-117 -118 -159 -160 0
-117 -119 -129 -131 0
-117 -119 -147 -149 0
-117 -119 -135 -137 0
-117 -119 -153 -155 0
-117 -119 -141 -143 0
-117 -119 -159 -161 0
-117 -120 -129 -132 0
-117 -120 -147 -150 0
-117 -120 -135 -138 0
-117 -120 -153 -156 0
-117 -120 -141 -144 0
-117 -120 -159 -162 0
-118 -119 -130 -131 0
-118 -119 -148 -149 0
-118 -119 -136 -137 0
-118 -119 -154 -155 0
-118 -119 -142 -143 0
-118 -119 -160 -161 0
-118 -120 -130 -132 0
-118 -120 -148 -150 0
-118 -120 -136 -138 0
-118 -120 -154 -156 0
-118 -120 -142 -144 0
-118 -120 -160 -162 0
-119 -120 -131 -132 0
-119 -120 -149 -150 0
-119 -120 -137 -138 0
-119 -120 -155 -156 0
-119 -120 -143 -144 0
-119 -120 -161 -162 0
-121 -122 -127 -128 0
-121 -122 -145 -146 0
-121 -122 -133 -134 0
-121 -122 -151 -152 0
-121 -122 -139 -140 0
-121 -122 -157 -158 0
-121 -123 -127 -129 0
-121 -123 -145 -147 0
-121 -123 -133 -135 0
-121 -123 -151 -153 0
-121 -123 -139 -141 0
-121 -123 -157 -159 0
-121 -124 -127 -130 0
-121 -124 -145 -148 0
-121 -124 -133 -136 0
-121 -124 -151 -154 0
-121 -124 -139 -142 0
-121 -124 -157 -160 0
-121 -125 -127 -131 0
-121 -125 -145 -149 0
-121 -125 -133 -137 0
-121 -125 -151 -155 0
-121 -125 -139 -143 0
-121 -125 -157 -161 0
-121 -126 -127 -132 0
-121 -126 -145 -150 0
-121 -126 -133 -138 0
-121 -126 -151 -156 0
-121 -126 -139 -144 0
-121 -126 -157 -162 0
-122 -123 -128 -129 0
-122 -123 -146 -147 0
-122 -123 -134 -135 0
-122 -123 -152 -153 0
-122 -123 -140 -141 0
-122 -123 -158 -159 0
-122 -124 -128 -130 0
-122 -124 -146 -148 0
-122 -124 -134 -136 0
-122 -124 -152 -154 0
-122 -124 -140 -142 0
-122 -124 -158 -160 0
-122 -125 -128 -131 0
-122 -125 -146 -149 0
-122 -125 -134 -137 0
-122 -125 -152 -155 0
-122 -125 -140 -143 0
-122 -125 -158 -161 0
-122 -126 -128 -132 0
-122 -126 -146 -150 0
-122 -126 -134 -138 0
-122 -126 -152 -156 0
-122 -126 -140 -144 0
-122 -126 -158 -162 0
-123 -124 -129 -130 0
-123 -124 -147 -148 0
-123 -124 -135 -136 0
-123 -124 -153 -154 0
-123 -124 -141 -142 0
-123 -124 -159 -160 0
-123 -125 -129 -131 0
-123 -125 -147 -149 0
-123 -125 -135 -137 0
-123 -125 -153 -155 0
-123 -125 -141 -143 0
-123 -125 -159 -161 0
-123 -126 -129 -132 0
-123 -126 -147 -150 0
-123 -126 -135 -138 0
-123 -126 -153 -156 0
-123 -126 -141 -144 0
-123 -126 -159 -162 0
-124 -125 -130 -131 0
-124 -125 -148 -149 0
-124 -125 -136 -137 0
-124 -125 -154 -155 0
-124 -125 -142 -143 0
-124 -125 -160 -161 0
-124 -126 -130 -132 0
-124 -126 -148 -150 0
-124 -126 -136 -138 0
-124 -126 -154 -156 0
-124 -126 -142 -144 0
-124 -126 -160 -162 0
-125 -126 -131 -132 0
-125 -126 -149 -150 0
-125 -126 -137 -138 0
-125 -126 -155 -156 0
-125 -126 -143 -144 0
-125 -126 -161 -162 0
-127 -128 -145 -146 0
-127 -128 -151 -152 0
-127 -128 -157 -158 0
-127 -129 -145 -147 0
-127 -129 -151 -153 0
-127 -129 -157 -159 0
-127 -130 -145 -148 0
-127 -130 -151 -154 0
-127 -130 -157 -160 0
-127 -131 -145 -149 0
-127 -131 -151 -155 0
-127 -131 -157 -161 0
-127 -132 -145 -150 0
-127 -132 -151 -156 0
-127 -132 -157 -162 0
-128 -129 -146 -147 0
-128 -129 -152 -153 0
-128 -129 -158 -159 0
-128 -130 -146 -148 0
-128 -130 -152 -154 0
-128 -130 -158 -160 0
-128 -131 -146 -149 0
-128 -131 -152 -155 0
-128 -131 -158 -161 0
-128 -132 -146 -150 0
-128 -132 -152 -156 0
-128 -132 -158 -162 0
-129 -130 -147 -148 0
-129 -130 -153 -154 0
-129 -130 -159 -160 0
-129 -131 -147 -149 0
-129 -131 -153 -155 0
-129 -131 -159 -161 0
-129 -132 -147 -150 0
-129 -132 -153 -156 0
-129 -132 -159 -162 0
-130 -131 -148 -149 0
-130 -131 -154 -155 0
-130 -131 -160 -161 0
-130 -132 -148 -150 0
-130 -132 -154 -156 0
-130 -132 -160 -162 0
-131 -132 -149 -150 0
-131 -132 -155 -156 0
-131 -132 -161 -162 0
-133 -134 -145 -146 0
-133 -134 -151 -152 0
-133 -134 -157 -158 0
-133 -135 -145 -147 0
-133 -135 -151 -153 0
-133 -135 -157 -159 0
-133 -136 -145 -148 0
-133 -136 -151 -154 0
-133 -136 -157 -160 0
-133 -137 -145 -149 0
-133 -137 -151 -155 0
-133 -137 -157 -161 0
-133 -138 -145 -150 0
-133 -138 -151 -156 0
-133 -138 -157 -162 0
-134 -135 -146 -147 0
-134 -135 -152 -153 0
-134 -135 -158 -159 0
-134 -136 -146 -148 0
-134 -136 -152 -154 0
-134 -136 -158 -160 0
-134 -137 -146 -149 0
-134 -137 -152 -155 0
-134 -137 -158 -161 0
-134 -138 -146 -150 0
-134 -138 -152 -156 0
-134 -138 -158 -162 0
-135 -136 -147 -148 0
-135 -136 -153 -154 0
-135 -136 -159 -160 0
-135 -137 -147 -149 0
-135 -137 -153 -155 0
-135 -137 -159 -161 0
-135 -138 -147 -150 0
-135 -138 -153 -156 0
-135 -138 -159 -162 0
-136 -137 -148 -149 0
-136 -137 -154 -155 0
-136 -137 -160 -161 0
-136 -138 -148 -150 0
-136 -138 -154 -156 0
-136 -138 -160 -162 0
-137 -138 -149 -150 0
-137 -138 -155 -156 0
-137 -138 -161 -162 0
-139 -140 -145 -146 0
-139 -140 -151 -152 0
-139 -140 -157 -158 0
-139 -141 -145 -147 0
-139 -141 -151 -153 0
-139 -141 -157 -159 0
-139 -142 -145 -148 0
-139 -142 -151 -154 0
-139 -142 -157 -160 0
-139 -143 -145 -149 0
-139 -143 -151 -155 0
-139 -143 -157 -161 0
-139 -144 -145 -150 0
-139 -144 -151 -156 0
-139 -144 -157 -162 0
-140 -141 -146 -147 0
-140 -141 -152 -153 0
-140 -141 -158 -159 0
-140 -142 -146 -148 0
-140 -142 -152 -154 0
-140 -142 -158 -160 0
-140 -143 -146 -149 0
-140 -143 -152 -155 0
-140 -143 -158 -161 0
-140 -144 -146 -150 0
-140 -144 -152 -156 0
-140 -144 -158 -162 0
-141 -142 -147 -148 0
-141 -142 -153 -154 0
-141 -142 -159 -160 0
-141 -143 -147 -149 0
-141 -143 -153 -155 0
-141 -143 -159 -161 0
-141 -144 -147 -150 0
-141 -144 -153 -156 0
-141 -144 -159 -162 0
-142 -143 -148 -149 0
-142 -143 -154 -155 0
-142 -143 -160 -161 0
-142 -144 -148 -150 0
-142 -144 -154 -156 0
-142 -144 -160 -162 0
-143 -144 -149 -150 0
-143 -144 -155 -156 0
-143 -144 -161 -162 0
-1 -7 0
-37 -43 0
-73 -79 0
-13 -19 0
-49 -55 0
-85 -91 0
-25 -31 0
-61 -67 0
-97 -103 0
-2 -7 0
-2 -8 0
-38 -43 0
-38 -44 0
-74 -79 0
-74 -80 0
-14 -19 0
-14 -20 0
-50 -55 0
-50 -56 0
-86 -91 0
-86 -92 0
-26 -31 0
-26 -32 0
-62 -67 0
-62 -68 0
-98 -103 0
-98 -104 0
-3 -7 0
-3 -8 0
-3 -9 0
-39 -43 0
-39 -44 0
-39 -45 0
-75 -79 0
-75 -80 0
-75 -81 0
-15 -19 0
-15 -20 0
-15 -21 0
-51 -55 0
-51 -56 0
-51 -57 0
-87 -91 0
-87 -92 0
-87 -93 0
-27 -31 0
-27 -32 0
-27 -33 0
-63 -67 0
-63 -68 0
-63 -69 0
-99 -103 0
-99 -104 0
-99 -105 0
-4 -7 0
-4 -8 0
-4 -9 0
-4 -10 0
-40 -43 0
-40 -44 0
-40 -45 0
-40 -46 0
-76 -79 0
-76 -80 0
-76 -81 0
-76 -82 0
-16 -19 0
-16 -20 0
-16 -21 0
-16 -22 0
-52 -55 0
-52 -56 0
-52 -57 0
-52 -58 0
-88 -91 0
-88 -92 0
-88 -93 0
-88 -94 0
-28 -31 0
-28 -32 0
-28 -33 0
-28 -34 0
-64 -67 0
-64 -68 0
-64 -69 0
-64 -70 0
-100 -103 0
-100 -104 0
-100 -105 0
-100 -106 0
-5 -7 0
-5 -8 0
-5 -9 0
-5 -10 0
-5 -11 0
-41 -43 0
-41 -44 0
-41 -45 0
-41 -46 0
-41 -47 0
-77 -79 0
-77 -80 0
-77 -81 0
-77 -82 0
-77 -83 0
-17 -19 0
-17 -20 0
-17 -21 0
-17 -22 0
-17 -23 0
-53 -55 0
-53 -56 0
-53 -57 0
-53 -58 0
-53 -59 0
-89 -91 0
-89 -92 0
-89 -93 0
-89 -94 0
-89 -95 0
-29 -31 0
-29 -32 0
-29 -33 0
-29 -34 0
-29 -35 0
-65 -67 0
-65 -68 0
-65 -69 0
-65 -70 0
-65 -71 0
-101 -103 0
-101 -104 0
-101 -105 0
-101 -106 0
-101 -107 0
-6 -7 0
-6 -8 0
-6 -9 0
-6 -10 0
-6 -11 0
-6 -12 0
-42 -43 0
-42 -44 0
-42 -45 0
-42 -46 0
-42 -47 0
-42 -48 0
-78 -79 0
-78 -80 0
-78 -81 0
-78 -82 0
-78 -83 0
-78 -84 0
-18 -19 0
-18 -20 0
-18 -21 0
-18 -22 0
-18 -23 0
-18 -24 0
-54 -55 0
-54 -56 0
-54 -57 0
-54 -58 0
-54 -59 0
-54 -60 0
-90 -91 0
-90 -92 0
-90 -93 0
-90 -94 0
-90 -95 0
-90 -96 0
-30 -31 0
-30 -32 0
-30 -33 0
-30 -34 0
-30 -35 0
-30 -36 0
-66 -67 0
-66 -68 0
-66 -69 0
-66 -70 0
-66 -71 0
-66 -72 0
-102 -103 0
-102 -104 0
-102 -105 0
-102 -106 0
-102 -107 0
-102 -108 0
-2 -13 0
-38 -49 0
-74 -85 0
-14 -25 0
-50 -61 0
-86 -97 0
-3 -13 0
-3 -14 0
-39 -49 0
-39 -50 0
-75 -85 0
-75 -86 0
-15 -25 0
-15 -26 0
-51 -61 0
-51 -62 0
-87 -97 0
-87 -98 0
-4 -13 0
-4 -14 0
-4 -15 0
-40 -49 0
-40 -50 0
-40 -51 0
-76 -85 0
-76 -86 0
-76 -87 0
-16 -25 0
-16 -26 0
-16 -27 0
-52 -61 0
-52 -62 0
-52 -63 0
-88 -97 0
-88 -98 0
-88 -99 0
-5 -13 0
-5 -14 0
-5 -15 0
-5 -16 0
-41 -49 0
-41 -50 0
-41 -51 0
-41 -52 0
-77 -85 0
-77 -86 0
-77 -87 0
-77 -88 0
-17 -25 0
-17 -26 0
-17 -27 0
-17 -28 0
-53 -61 0
-53 -62 0
-53 -63 0
-53 -64 0
-89 -97 0
-89 -98 0
-89 -99 0
-89 -100 0
-6 -13 0
-6 -14 0
-6 -15 0
-6 -16 0
-6 -17 0
-42 -49 0
-42 -50 0
-42 -51 0
-42 -52 0
-42 -53 0
-78 -85 0
-78 -86 0
-78 -87 0
-78 -88 0
-78 -89 0
-18 -25 0
-18 -26 0
-18 -27 0
-18 -28 0
-18 -29 0
-54 -61 0
-54 -62 0
-54 -63 0
-54 -64 0
-54 -65 0
-90 -97 0
-90 -98 0
-90 -99 0
-90 -100 0
-90 -101 0
-7 -43 0
-43 -79 0
-8 -43 0
-8 -44 0
-44 -79 0
-44 -80 0
-9 -43 0
-9 -44 0
-9 -45 0
-45 -79 0
-45 -80 0
-45 -81 0
-10 -43 0
-10 -44 0
-10 -45 0
-10 -46 0
-46 -79 0
-46 -80 0
-46 -81 0
-46 -82 0
-11 -43 0
-11 -44 0
-11 -45 0
-11 -46 0
-11 -47 0
-47 -79 0
-47 -80 0
-47 -81 0
-47 -82 0
-47 -83 0
-12 -43 0
-12 -44 0
-12 -45 0
-12 -46 0
-12 -47 0
-12 -48 0
-48 -79 0
-48 -80 0
-48 -81 0
-48 -82 0
-48 -83 0
-48 -84 0
